SCIP Status        : problem creation / modification
Total Time         :       0.17
  reading          :       0.17
Original Problem   :
  Problem name     : main4.zpl
  Variables        : 15050 (15050 binary, 0 integer, 0 implicit integer, 0 continuous)
  Constraints      : 0 initial, 15350 maximal
  Objective        : minimize, 15050 non-zeros (abs.min = 0.00068, abs.max = 5700)
